RT is False
Default write of storage_offers_DA.csv just to have a file (but constraint should be inactive)
Reading model...
...model read.
creating competitive generators file...
...competitive generators recorded.
Loading data...
.. day-ahead data with real-time VRE data read.
Compiling instance...
...instance created.
Creating Offer Mitigation (model will solve as dispatch if TRUE)...
NOTE: storage offers will not be mitigated
...storage offer mitigation file created
Converting model to MPEC...
...converted
NOTE: initial MIP solve with only storage competitive to get feasible solution
Solving...

Welcome to IBM(R) ILOG(R) CPLEX(R) Interactive Optimizer 12.9.0.0
  with Simplex, Mixed Integer & Barrier Optimizers
5725-A06 5725-A29 5724-Y48 5724-Y49 5724-Y54 5724-Y55 5655-Y21
Copyright IBM Corp. 1988, 2019.  All Rights Reserved.

Type 'help' for a list of available commands.
Type 'help' followed by a command name for more
information on commands.

CPLEX> Logfile 'cplex.log' closed.
Logfile 'C:\Users\llavin\Desktop\test919\logs\tmpjemqa3pn.cplex.log' open.
CPLEX> New value for parallel optimization mode: -1
CPLEX> New value for mixed integer optimality gap tolerance: 0.01
CPLEX> New value for integrality tolerance: 1e-09
CPLEX> New value for feasibility tolerance: 0.01
CPLEX> New value for deterministic time limit in ticks: 75000
CPLEX> Problem 'C:\Users\llavin\Desktop\test919\logs\tmpsnnqa279.pyomo.lp' read.
Read time = 0.25 sec. (14.73 ticks)
CPLEX> Problem name         : C:\Users\llavin\Desktop\test919\logs\tmpsnnqa279.pyomo.lp
Objective sense      : Maximize
Variables            :   53805  [Nneg: 1,  Box: 22000,  Free: 4464,
                                 Binary: 27340]
Objective nonzeros   :    9029
Linear constraints   :  123205  [Less: 41346,  Greater: 59096,  Equal: 22763]
  Nonzeros           :  291753
  RHS nonzeros       :   67491

Variables            : Min LB: -5000.000        Max UB: 1000000.       
Objective nonzeros   : Min   : 0.7833333        Max   : 2500.000       
Linear constraints   :
  Nonzeros           : Min   : 0.7833333        Max   : 1000000.       
  RHS nonzeros       : Min   : 0.7833333        Max   : 1000000.       
CPLEX> CPXPARAM_Parallel                                -1
CPXPARAM_Simplex_Tolerances_Feasibility          0.01
CPXPARAM_DetTimeLimit                            75000
CPXPARAM_MIP_Tolerances_MIPGap                   0.01
CPXPARAM_MIP_Tolerances_Integrality              1.0000000000000001e-09
Tried aggregator 3 times.
MIP Presolve eliminated 88718 rows and 19042 columns.
MIP Presolve added 3374 rows and 0 columns.
MIP Presolve modified 24792 coefficients.
Aggregator did 12962 substitutions.
Reduced MIP has 24899 rows, 21245 columns, and 71021 nonzeros.
Reduced MIP has 8394 binaries, 0 generals, 0 SOSs, and 0 indicators.
Presolve time = 0.30 sec. (176.01 ticks)
Probing fixed 387 vars, tightened 2845 bounds.
Probing time = 1.23 sec. (901.86 ticks)
Tried aggregator 2 times.
MIP Presolve eliminated 873 rows and 774 columns.
MIP Presolve modified 2213 coefficients.
Aggregator did 46 substitutions.
Reduced MIP has 23980 rows, 20425 columns, and 68363 nonzeros.
Reduced MIP has 8007 binaries, 0 generals, 0 SOSs, and 0 indicators.
Presolve time = 0.11 sec. (66.43 ticks)
Probing time = 0.03 sec. (16.53 ticks)
Clique table members: 6487.
MIP emphasis: balance optimality and feasibility.
MIP search method: dynamic search.
Parallel mode: opportunistic, using up to 32 threads.
Root relaxation solution time = 0.38 sec. (289.44 ticks)

        Nodes                                         Cuts/
   Node  Left     Objective  IInf  Best Integer    Best Bound    ItCnt     Gap

      0     0     3870.3045  2027                   3870.3045     6883         
      0     0     3870.2409    19                    Cuts: 16     6898         
      0     0     3869.8777    18                    Cuts: 16     6902         
      0     0     3868.8529    18                 Impl Bds: 2     6903         
      0     0     3868.8529    18                 Impl Bds: 1     6903         
      0    16    infeasible                         3863.4184     7199         
Elapsed time = 8.63 sec. (5261.69 ticks, tree = 0.02 MB, solutions = 0)
    431    71   -12831.5020    12                   3856.5103     9890         
*   710+  386                       -31516.4813     3856.5103           112.24%
*   826   375      integral     0     3824.1420     3856.5103    17738    0.85%
    908   384     3792.0824     1     3824.1420     3856.5103    18286    0.85%

Cover cuts applied:  2
Implied bound cuts applied:  25
Flow cuts applied:  11
Gomory fractional cuts applied:  8

Root node processing (before b&c):
  Real time             =    7.80 sec. (5255.93 ticks)
Parallel b&c, 32 threads:
  Real time             =    4.63 sec. (729.83 ticks)
  Sync time (average)   =    0.79 sec.
  Wait time (average)   =    0.00 sec.
                          ------------
Total (root+branch&cut) =   12.42 sec. (5985.76 ticks)

Solution pool: 2 solutions saved.

MIP - Integer optimal, tolerance (0.01/1e-06):  Objective =  3.8241420386e+03
Current MIP best bound =  3.8565103047e+03 (gap = 32.3683, 0.85%)
Solution time =   12.44 sec.  Iterations = 25119  Nodes = 909 (25)
Deterministic time = 5985.91 ticks  (481.26 ticks/sec)

CPLEX> Incumbent solution written to file 'C:\Users\llavin\Desktop\test919\logs\tmparn0fzzy.cplex.sol'.
CPLEX> NOTE: no warmstart specified for MIP iteration, default behavior is true
NOTE: resolving with all competitive generators using storage-only solution to warmstart
Solving...

Welcome to IBM(R) ILOG(R) CPLEX(R) Interactive Optimizer 12.9.0.0
  with Simplex, Mixed Integer & Barrier Optimizers
5725-A06 5725-A29 5724-Y48 5724-Y49 5724-Y54 5724-Y55 5655-Y21
Copyright IBM Corp. 1988, 2019.  All Rights Reserved.

Type 'help' for a list of available commands.
Type 'help' followed by a command name for more
information on commands.

CPLEX> Logfile 'cplex.log' closed.
Logfile 'C:\Users\llavin\Desktop\test919\logs\tmp89yzf7hr.cplex.log' open.
CPLEX> New value for parallel optimization mode: -1
CPLEX> New value for mixed integer optimality gap tolerance: 0.01
CPLEX> New value for integrality tolerance: 1e-09
CPLEX> New value for feasibility tolerance: 0.01
CPLEX> New value for deterministic time limit in ticks: 75000
CPLEX> Problem 'C:\Users\llavin\Desktop\test919\logs\tmpbnhma1we.pyomo.lp' read.
Read time = 0.27 sec. (14.75 ticks)
CPLEX> MIP start file 'C:\Users\llavin\Desktop\test919\logs\tmpqhttyie3.cplex.mst' read.
CPLEX> Problem name         : C:\Users\llavin\Desktop\test919\logs\tmpbnhma1we.pyomo.lp
Objective sense      : Maximize
Variables            :   54525  [Nneg: 1,  Box: 22720,  Free: 4464,
                                 Binary: 27340]
Objective nonzeros   :    9725
Linear constraints   :  123205  [Less: 41346,  Greater: 59096,  Equal: 22763]
  Nonzeros           :  291753
  RHS nonzeros       :   67491

Variables            : Min LB: -5000.000        Max UB: 1000000.       
Objective nonzeros   : Min   : 0.7833333        Max   : 2500.000       
Linear constraints   :
  Nonzeros           : Min   : 0.7833333        Max   : 1000000.       
  RHS nonzeros       : Min   : 0.7833333        Max   : 1000000.       
CPLEX> CPXPARAM_Parallel                                -1
CPXPARAM_Simplex_Tolerances_Feasibility          0.01
CPXPARAM_DetTimeLimit                            75000
CPXPARAM_MIP_Tolerances_MIPGap                   0.01
CPXPARAM_MIP_Tolerances_Integrality              1.0000000000000001e-09
Warning:  No solution found from 1 MIP starts.
Retaining values of one MIP start for possible repair.
Tried aggregator 3 times.
MIP Presolve eliminated 88718 rows and 19762 columns.
MIP Presolve added 3374 rows and 0 columns.
MIP Presolve modified 24792 coefficients.
Aggregator did 12962 substitutions.
Reduced MIP has 24899 rows, 21245 columns, and 71021 nonzeros.
Reduced MIP has 8394 binaries, 0 generals, 0 SOSs, and 0 indicators.
Presolve time = 0.30 sec. (176.37 ticks)
Probing fixed 387 vars, tightened 2845 bounds.
Probing time = 1.22 sec. (901.86 ticks)
Tried aggregator 2 times.
MIP Presolve eliminated 873 rows and 774 columns.
MIP Presolve modified 2213 coefficients.
Aggregator did 46 substitutions.
Reduced MIP has 23980 rows, 20425 columns, and 68363 nonzeros.
Reduced MIP has 8007 binaries, 0 generals, 0 SOSs, and 0 indicators.
Presolve time = 0.11 sec. (66.43 ticks)
Probing time = 0.05 sec. (16.53 ticks)
Clique table members: 6487.
MIP emphasis: balance optimality and feasibility.
MIP search method: dynamic search.
Parallel mode: opportunistic, using up to 32 threads.
Root relaxation solution time = 0.39 sec. (307.58 ticks)

        Nodes                                         Cuts/
   Node  Left     Objective  IInf  Best Integer    Best Bound    ItCnt     Gap

      0     0    52876.3436  2167                  52876.3436     7235         
      0     0    52481.0015   723                   Cuts: 887     7671         
      0     0    52354.3445   552                   Cuts: 557     7935         
      0     0    52342.6249   498                   Cuts: 259     8039         
      0     0    52322.9243   486                    Cuts: 74     8082         
      0     0    52322.9243   481                    Cuts: 35     8091         
      0     0    52321.4237   477                    Cuts: 27     8103         
      0     0    52321.0133   472                    Cuts: 33     8123         
Repair heuristic found nothing.
      0     2    52321.0133   468                     Cuts: 8     8123         
Elapsed time = 10.20 sec. (6315.89 ticks, tree = 0.02 MB, solutions = 0)
    295   231    51319.3687   438                  51987.9882    10103         
   1012   223    50293.5562   379                  51987.9882     9747         
   1594   315    50429.2737   372                  51893.5037    10659         
   2345   553    50811.8505   347                  51893.5037    15657         
   3173  1674    50220.4995   382                  51893.5037    39655         
   4229  1603    51065.8848   349                  51893.5037    39075         
   5337  2230    50658.1662   352                  51893.5037    45643         
   6284  4204    49620.4826   342                  51893.5037    50019         
   7094  3605    50783.3300   339                  51893.5037    49627         
*  9907+ 8360                        46384.1272    51893.5037            11.88%
Elapsed time = 27.05 sec. (9169.11 ticks, tree = 68.92 MB, solutions = 1)
* 12670  8085      integral     0    49157.8431    51893.5037    54905    5.57%
  12882  3613    infeasible          49157.8431    51893.5037    66173    5.57%
  14289   126    49213.9839    98    49157.8431    51893.5037    67089    5.57%
  14402   363    51170.2585    86    49157.8431    51893.5037    68560    5.57%
  15218  1349    49529.8202   100    49157.8431    51893.5037    77407    5.57%
  16834  1556    50039.9845   114    49157.8431    51893.5037    79067    5.57%
  19257  3686    49956.0286   119    49157.8431    51893.5037    90060    5.57%
  21871  5200    49796.5577    92    49157.8431    51893.5037    98123    5.57%
  24090  5862    49381.8419    94    49157.8431    51893.5037   101164    5.57%
  24790  9190    51179.5018   139    49157.8431    51782.0973   120431    5.34%
Elapsed time = 74.23 sec. (23697.48 ticks, tree = 91.03 MB, solutions = 4)
  24816  9479    49887.5568   129    49157.8431    51782.0973   122709    5.34%
  25325  9498    49956.4247   116    49157.8431    51782.0973   122930    5.34%
  26874  9541    51243.3657   139    49157.8431    51782.0973   123283    5.34%
  29285 12031    49920.2481   122    49157.8431    51563.5697   144254    4.89%
  31902 11857    49951.8097   130    49157.8431    51537.8444   142748    4.84%
  34802 11033    49892.4477   105    49157.8431    51537.8444   136109    4.84%
  37608 12450    49619.7759   123    49157.8431    51536.4719   147394    4.84%
  40426 15001    49556.2408   114    49157.8431    51525.2487   168324    4.82%
  43249 17369    49608.1578   114    49157.8431    51445.6080   190012    4.65%
  46126 20119    49272.0944   134    49157.8431    51445.6080   215663    4.65%
Elapsed time = 121.72 sec. (33236.89 ticks, tree = 206.08 MB, solutions = 4)
  48668 19398    50281.5756   139    49157.8431    51445.6080   207009    4.65%
  50437 19716    49265.0680   109    49157.8431    51235.1578   210415    4.23%
  51386 21592    49917.4008   115    49157.8431    51204.1029   230274    4.16%
  51446 21781    49914.4723   125    49157.8431    51181.1163   232625    4.12%
  51561 25239    49985.4071   124    49157.8431    51181.1163   265870    4.12%
  52103 24993        cutoff          49157.8431    51178.8084   263364    4.11%
  53387 25047    49956.5277   124    49157.8431    51178.8084   263978    4.11%
  55723 25395    50371.3054   132    49157.8431    51165.6053   267418    4.08%
  58480 25000    49520.8987   103    49157.8431    51165.6053   263751    4.08%
  61290 25811    49191.5757   108    49157.8431    51134.9127   270225    4.02%
Elapsed time = 161.13 sec. (42840.51 ticks, tree = 264.25 MB, solutions = 4)
  64006 27886    49918.2912   120    49157.8431    51134.9127   287358    4.02%
  66536 33503    50592.4968   131    49157.8431    50964.5675   329861    3.68%
  68913 33866    49757.9637   141    49157.8431    50964.5675   332184    3.68%
  71390 34099    49623.7242   119    49157.8431    50958.0538   334584    3.66%
  73844 35337    50625.0573   139    49157.8431    50958.0538   346857    3.66%
  76366 36271    49814.5823   151    49157.8431    50958.0538   359498    3.66%
  78869 35992    50107.4276   169    49157.8431    50958.0538   354623    3.66%
  81292 36883    49547.5049   151    49157.8431    50958.0538   424128    3.66%
  83677 36924    49644.8506   152    49157.8431    50958.0538   417603    3.66%
  86083 36920    49407.2174   171    49157.8431    50958.0538   410484    3.66%
Elapsed time = 221.92 sec. (52379.48 ticks, tree = 379.20 MB, solutions = 4)
  88425 36477    49242.2116   133    49157.8431    50958.0538   461925    3.66%
  90704 36475    49244.1977   145    49157.8431    50958.0538   462786    3.66%
  92693 36409    49566.5428   149    49157.8431    50958.0538   470462    3.66%
  94357 36437    49441.5129   156    49157.8431    50958.0538   497129    3.66%
  95658 36426    49220.9672   145    49157.8431    50958.0538   497408    3.66%
  96151 36621        cutoff          49157.8431    50033.9833   581071    1.78%
  96183     2    51733.2749   157    49157.8431    50033.9833   581002    1.78%

Clique cuts applied:  1
Cover cuts applied:  4
Implied bound cuts applied:  1
Flow cuts applied:  68
Mixed integer rounding cuts applied:  22
Gomory fractional cuts applied:  84

Root node processing (before b&c):
  Real time             =    8.19 sec. (6270.99 ticks)
Parallel b&c, 32 threads:
  Real time             =  228.39 sec. (57575.44 ticks)
  Sync time (average)   =    4.58 sec.
  Wait time (average)   =    0.44 sec.
                          ------------
Total (root+branch&cut) =  236.58 sec. (63846.43 ticks)

Solution pool: 4 solutions saved.

MIP - Integer optimal, tolerance (0.01/1e-06):  Objective =  4.9157843068e+04
Current MIP best bound =  4.9622149440e+04 (gap = 464.306, 0.94%)
Solution time =  236.61 sec.  Iterations = 581667  Nodes = 96202 (4)
Deterministic time = 63846.59 ticks  (269.84 ticks/sec)

CPLEX> Incumbent solution written to file 'C:\Users\llavin\Desktop\test919\logs\tmp3aezbmwj.cplex.sol'.
CPLEX> Exporting results... 
